495 : 14889 17523 
14889 : 1990 495 
3678 : 4288 8669 
9329 : 7858 
11459 : 21536 10264 
7858 : 11879 9329 
1604 : 8669 
8669 : 21536 1604 3678 
10264 : 11459 18766 17523 
11719 : 7670 11879 
18766 : 10264 16033 
9783 : 15986 
4288 : 11879 3678 
16033 : 18766 15986 
17523 : 495 10264 
15986 : 16033 9783 
7670 : 11719 
1990 : 14889 
21536 : 11459 8669 
11879 : 11719 7858 4288 
7670 1990 11459 1604 9783 9329 
